NAME : kroB100-R-3-1-a.28454.tour
COMMENT : Length = 28454
COMMENT : Found by LKH-3 [Keld Helsgaun] Tue Jul 30 13:14:56 2024
TYPE : TOUR
DIMENSION : 100
TOUR_SECTION
1
90
21
46
25
34
27
61
35
71
12
95
11
93
73
53
70
67
5
62
56
100
26
69
86
20
30
75
79
65
37
88
23
22
55
54
52
43
89
87
60
74
66
4
6
15
82
42
63
13
78
17
41
44
19
92
96
36
45
18
24
77
16
2
48
31
51
33
83
64
14
50
58
84
7
57
94
9
72
47
81
80
38
49
68
10
40
39
85
3
28
91
97
99
8
29
76
59
32
98
-1
EOF
